$rem
jobtype xsapt
method HF
basis 6-311G
scf_convergence 7
thresh 12
$end

$xpol
embed none
print 3
$end

$sapt
cphf
dscf
print 3
algorithm ao
order 2
basis dimer
Dispersion MBD
$end

<molecular_geometry>
