$rem
jobtype xsapt
method lrc-wpbe
basis def2-tzvpd
lrc_dft true
scf_guess autosad
thresh 12
$end

$xpol
embed charges
dft-lrc
print 3
$end

$sapt
print 3
algorithm ao
order 2
basis projected
Dispersion MBD
$end

$lrc_omega
340
340
$end

<molecular_geometry>
